&CONTROL
  calculation = 'md'
  dt =   20.0
  flipper_do_nonloc = .true.
  iprint = 1
  lflipper = .true.
  nstep = 50
  outdir = './out/'
  prefix = 'rho_del' ! same outdir and prefix as in charge calculation
  pseudo_dir = '../../pseudos/'
  verbosity = 'low'
/
&SYSTEM
  ecutrho = 4.0000000000d+02
  ecutwfc = 5.0000000000d+01
  flipper_ewald_pinball_factor = 0.445
  flipper_ewald_rigid_factor = 1.16
  flipper_local_factor = 1.147
  flipper_nonlocal_correction = 2.37
  ibrav = 0
  nat = 64
  nosym = .true.
  ntyp = 3
  tot_charge =   0.0000000000d+00
/
&ELECTRONS
  conv_thr =   2.2400000000d-08
/
&IONS
  ion_temperature = 'svr'
  nraise = 10
  tempw =   1000
/
ATOMIC_SPECIES
Li     6.941 Li.nc-chg-pt-nlcc.UPF 
Nb     92.90638 Nb.pbe-spn-kjpaw_psl.0.3.0.UPF
O      15.9994 O.pbe-n-kjpaw_psl.0.1.UPF
ATOMIC_POSITIONS crystal
Li           0.8954000000       0.6218000000       0.3782000000 
Li           0.6218000000       0.6218000000       0.1046000000 
Li           0.6218000000       0.8954000000       0.3782000000 
Li           0.8954000000       0.3782000000       0.6218000000 
Li           0.6218000000       0.3782000000       0.8954000000 
Li           0.6218000000       0.1046000000       0.6218000000 
Li           0.1046000000       0.6218000000       0.6218000000 
Li           0.3782000000       0.6218000000       0.8954000000 
Li           0.3782000000       0.8954000000       0.6218000000 
Li           0.1046000000       0.3782000000       0.3782000000 
Li           0.3782000000       0.3782000000       0.1046000000 
Li           0.3782000000       0.1046000000       0.3782000000 
Li           0.3954000000       0.1218000000       0.8782000000 
Li           0.1218000000       0.1218000000       0.6046000000 
Li           0.1218000000       0.3954000000       0.8782000000 
Li           0.3954000000       0.8782000000       0.1218000000 
Li           0.1218000000       0.8782000000       0.3954000000 
Li           0.1218000000       0.6046000000       0.1218000000 
Li           0.6046000000       0.1218000000       0.1218000000 
Li           0.8782000000       0.1218000000       0.3954000000 
Li           0.8782000000       0.3954000000       0.1218000000 
Li           0.6046000000       0.8782000000       0.8782000000 
Li           0.8782000000       0.8782000000       0.6046000000 
Li           0.8782000000       0.6046000000       0.8782000000 
Nb           0.8597200000       0.8597200000       0.1402800000 
Nb           0.8597200000       0.1402800000       0.8597200000 
Nb           0.1402800000       0.8597200000       0.8597200000 
Nb           0.1402800000       0.1402800000       0.1402800000 
Nb           0.3597200000       0.3597200000       0.6402800000 
Nb           0.3597200000       0.6402800000       0.3597200000 
Nb           0.6402800000       0.3597200000       0.3597200000 
Nb           0.6402800000       0.6402800000       0.6402800000 
O            0.1090000000       0.1090000000       0.8910000000 
O            0.1090000000       0.8910000000       0.1090000000 
O            0.8910000000       0.1090000000       0.1090000000 
O            0.8910000000       0.8910000000       0.8910000000 
O            0.6090000000       0.6090000000       0.3910000000 
O            0.6090000000       0.3910000000       0.6090000000 
O            0.3910000000       0.6090000000       0.6090000000 
O            0.3910000000       0.3910000000       0.3910000000 
O            0.6399000000       0.8753000000       0.1247000000 
O            0.8753000000       0.8753000000       0.3601000000 
O            0.8753000000       0.6399000000       0.1247000000 
O            0.6399000000       0.1247000000       0.8753000000 
O            0.8753000000       0.1247000000       0.6399000000 
O            0.8753000000       0.3601000000       0.8753000000 
O            0.3601000000       0.8753000000       0.8753000000 
O            0.1247000000       0.8753000000       0.6399000000 
O            0.1247000000       0.6399000000       0.8753000000 
O            0.3601000000       0.1247000000       0.1247000000 
O            0.1247000000       0.1247000000       0.3601000000 
O            0.1247000000       0.3601000000       0.1247000000 
O            0.1399000000       0.3753000000       0.6247000000 
O            0.3753000000       0.3753000000       0.8601000000 
O            0.3753000000       0.1399000000       0.6247000000 
O            0.1399000000       0.6247000000       0.3753000000 
O            0.3753000000       0.6247000000       0.1399000000 
O            0.3753000000       0.8601000000       0.3753000000 
O            0.8601000000       0.3753000000       0.3753000000 
O            0.6247000000       0.3753000000       0.1399000000 
O            0.6247000000       0.1399000000       0.3753000000 
O            0.8601000000       0.6247000000       0.6247000000 
O            0.6247000000       0.6247000000       0.8601000000 
O            0.6247000000       0.8601000000       0.6247000000 
K_POINTS gamma
CELL_PARAMETERS angstrom
      8.4120000000       0.0000000000       0.0000000000
      0.0000000000       8.4120000000       0.0000000000
      0.0000000000       0.0000000000       8.4120000000
