&CONTROL
  calculation = 'scf'
  outdir = './out/'
  prefix = 'rho_del'
  pseudo_dir = '../../pseudos/'
/
&SYSTEM
  ecutrho =   4.0000000000d+02
  ecutwfc =   5.0000000000d+01
  ibrav = 0
  nat = 40
  nosym = .true.
  ntyp = 2
  occupations = 'fixed'
  tot_charge = -24.0 ! Number of Li removed
/
&ELECTRONS
  conv_thr =   1.2800000000d-08
  electron_maxstep = 80
  mixing_beta =   4.0000000000d-01
/
ATOMIC_SPECIES
Nb     92.90638 Nb.pbe-spn-kjpaw_psl.0.3.0.UPF
O      15.9994 O.pbe-n-kjpaw_psl.0.1.UPF
ATOMIC_POSITIONS crystal
Nb           0.8597200000       0.8597200000       0.1402800000 
Nb           0.8597200000       0.1402800000       0.8597200000 
Nb           0.1402800000       0.8597200000       0.8597200000 
Nb           0.1402800000       0.1402800000       0.1402800000 
Nb           0.3597200000       0.3597200000       0.6402800000 
Nb           0.3597200000       0.6402800000       0.3597200000 
Nb           0.6402800000       0.3597200000       0.3597200000 
Nb           0.6402800000       0.6402800000       0.6402800000 
O            0.1090000000       0.1090000000       0.8910000000 
O            0.1090000000       0.8910000000       0.1090000000 
O            0.8910000000       0.1090000000       0.1090000000 
O            0.8910000000       0.8910000000       0.8910000000 
O            0.6090000000       0.6090000000       0.3910000000 
O            0.6090000000       0.3910000000       0.6090000000 
O            0.3910000000       0.6090000000       0.6090000000 
O            0.3910000000       0.3910000000       0.3910000000 
O            0.6399000000       0.8753000000       0.1247000000 
O            0.8753000000       0.8753000000       0.3601000000 
O            0.8753000000       0.6399000000       0.1247000000 
O            0.6399000000       0.1247000000       0.8753000000 
O            0.8753000000       0.1247000000       0.6399000000 
O            0.8753000000       0.3601000000       0.8753000000 
O            0.3601000000       0.8753000000       0.8753000000 
O            0.1247000000       0.8753000000       0.6399000000 
O            0.1247000000       0.6399000000       0.8753000000 
O            0.3601000000       0.1247000000       0.1247000000 
O            0.1247000000       0.1247000000       0.3601000000 
O            0.1247000000       0.3601000000       0.1247000000 
O            0.1399000000       0.3753000000       0.6247000000 
O            0.3753000000       0.3753000000       0.8601000000 
O            0.3753000000       0.1399000000       0.6247000000 
O            0.1399000000       0.6247000000       0.3753000000 
O            0.3753000000       0.6247000000       0.1399000000 
O            0.3753000000       0.8601000000       0.3753000000 
O            0.8601000000       0.3753000000       0.3753000000 
O            0.6247000000       0.3753000000       0.1399000000 
O            0.6247000000       0.1399000000       0.3753000000 
O            0.8601000000       0.6247000000       0.6247000000 
O            0.6247000000       0.6247000000       0.8601000000 
O            0.6247000000       0.8601000000       0.6247000000 
K_POINTS gamma
CELL_PARAMETERS angstrom
      8.4120000000       0.0000000000       0.0000000000
      0.0000000000       8.4120000000       0.0000000000
      0.0000000000       0.0000000000       8.4120000000
